5427442611367749356506,8,1,2,011,7,1,2,03,9,1,2,04,3,1,2,014,13,1,2,05,15,1,2,012,10,1,2,08,4,1,2,06,6,1,2,010,9,1,2,01,14,1,2,012,11,1,2,014,3,1,2,06,4,1,2,03,7,1,2,08,5,1,2,01,4,1,2,03,2,1,2,04,7,1,2,04,1,1,2,010,12,1,2,09,13,1,2,07,11,1,2,01,7,1,2,010,15,1,2,03,3,1,2,015,13,1,2,02,4,1,2,07,10,1,2,02,4,1,2,011,10,1,2,012,9,1,2,05,12,1,2,04,3,1,2,011,11,1,2,012,14,1,2,06,8,1,2,02,13,1,2,05,13,1,2,03,8,1,2,09,4,1,2,03,9,1,2,04,3,1,2,010,15,1,2,014,9,1,2,012,12,1,2,012,15,1,2,01,6,1,2,04,10,1,2,012,12,1,2,0